p cnf 196 1331
1 0
-2 0
-3 0
-4 0
29 5 0
-29 -5 0
8 0
-5 0
-6 0
-7 0
36 4 12 0
-36 -4 0
-36 -12 0
-4 -12 0
-9 -10 0
-9 -11 0
-9 -12 0
-10 -11 0
-10 -12 0
-11 -12 0
-9 37 5 0
-9 37 13 0
-9 5 13 0
-10 38 6 0
-10 38 14 0
-10 6 14 0
-11 39 7 0
-11 39 15 0
-11 7 15 0
-12 40 8 0
-12 40 16 0
-12 8 16 0
-9 -37 -5 -13 0
-10 -38 -6 -14 0
-11 -39 -7 -15 0
-12 -40 -8 -16 0
-13 -14 0
-13 -15 0
-13 -16 0
-14 -15 0
-14 -16 0
-15 -16 0
-13 41 9 0
-13 41 17 0
-13 9 17 0
-14 42 10 0
-14 42 18 0
-14 10 18 0
-15 43 11 0
-15 43 19 0
-15 11 19 0
-16 44 12 0
-16 44 20 0
-16 12 20 0
-13 -41 -9 -17 0
-14 -42 -10 -18 0
-15 -43 -11 -19 0
-16 -44 -12 -20 0
-17 -18 0
-17 -19 0
-17 -20 0
-18 -19 0
-18 -20 0
-19 -20 0
-17 45 13 0
-17 45 21 0
-17 13 21 0
-18 46 14 0
-18 46 22 0
-18 14 22 0
-19 47 15 0
-19 47 23 0
-19 15 23 0
-20 48 16 0
-20 48 24 0
-20 16 24 0
-17 -45 -13 -21 0
-18 -46 -14 -22 0
-19 -47 -15 -23 0
-20 -48 -16 -24 0
-21 -22 0
-21 -23 0
-21 -24 0
-22 -23 0
-22 -24 0
-23 -24 0
-21 49 17 0
-21 49 25 0
-21 17 25 0
-22 50 18 0
-22 50 26 0
-22 18 26 0
-23 51 19 0
-23 51 27 0
-23 19 27 0
-24 52 20 0
-24 52 28 0
-24 20 28 0
-21 -49 -17 -25 0
-22 -50 -18 -26 0
-23 -51 -19 -27 0
-24 -52 -20 -28 0
-25 -26 0
-25 -27 0
-25 -28 0
-26 -27 0
-26 -28 0
-27 -28 0
-25 53 0
-25 21 0
-26 54 0
-26 22 0
-27 55 0
-27 23 0
-28 56 0
-28 24 0
-29 -30 0
-29 -31 0
-29 -32 0
-30 -31 0
-30 -32 0
-31 -32 0
-29 57 1 0
-29 57 33 0
-29 1 33 0
-30 58 2 0
-30 58 34 0
-30 2 34 0
-31 59 3 0
-31 59 35 0
-31 3 35 0
-32 60 4 0
-32 60 36 0
-32 4 36 0
-29 -57 -1 -33 0
-30 -58 -2 -34 0
-31 -59 -3 -35 0
-32 -60 -4 -36 0
-33 -34 0
-33 -35 0
-33 -36 0
-34 -35 0
-34 -36 0
-35 -36 0
-33 61 5 37 0
-33 61 5 29 0
-33 61 37 29 0
-33 5 37 29 0
-34 62 6 38 0
-34 62 6 30 0
-34 62 38 30 0
-34 6 38 30 0
-35 63 7 39 0
-35 63 7 31 0
-35 63 39 31 0
-35 7 39 31 0
-36 64 8 40 0
-36 64 8 32 0
-36 64 40 32 0
-36 8 40 32 0
-33 -61 -5 -37 0
-33 -61 -5 -29 0
-33 -61 -37 -29 0
-33 -5 -37 -29 0
-34 -62 -6 -38 0
-34 -62 -6 -30 0
-34 -62 -38 -30 0
-34 -6 -38 -30 0
-35 -63 -7 -39 0
-35 -63 -7 -31 0
-35 -63 -39 -31 0
-35 -7 -39 -31 0
-36 -64 -8 -40 0
-36 -64 -8 -32 0
-36 -64 -40 -32 0
-36 -8 -40 -32 0
-37 -38 0
-37 -39 0
-37 -40 0
-38 -39 0
-38 -40 0
-39 -40 0
-37 65 9 41 0
-37 65 9 33 0
-37 65 41 33 0
-37 9 41 33 0
-38 66 10 42 0
-38 66 10 34 0
-38 66 42 34 0
-38 10 42 34 0
-39 67 11 43 0
-39 67 11 35 0
-39 67 43 35 0
-39 11 43 35 0
-40 68 12 44 0
-40 68 12 36 0
-40 68 44 36 0
-40 12 44 36 0
-37 -65 -9 -41 0
-37 -65 -9 -33 0
-37 -65 -41 -33 0
-37 -9 -41 -33 0
-38 -66 -10 -42 0
-38 -66 -10 -34 0
-38 -66 -42 -34 0
-38 -10 -42 -34 0
-39 -67 -11 -43 0
-39 -67 -11 -35 0
-39 -67 -43 -35 0
-39 -11 -43 -35 0
-40 -68 -12 -44 0
-40 -68 -12 -36 0
-40 -68 -44 -36 0
-40 -12 -44 -36 0
-41 -42 0
-41 -43 0
-41 -44 0
-42 -43 0
-42 -44 0
-43 -44 0
-41 69 13 45 0
-41 69 13 37 0
-41 69 45 37 0
-41 13 45 37 0
-42 70 14 46 0
-42 70 14 38 0
-42 70 46 38 0
-42 14 46 38 0
-43 71 15 47 0
-43 71 15 39 0
-43 71 47 39 0
-43 15 47 39 0
-44 72 16 48 0
-44 72 16 40 0
-44 72 48 40 0
-44 16 48 40 0
-41 -69 -13 -45 0
-41 -69 -13 -37 0
-41 -69 -45 -37 0
-41 -13 -45 -37 0
-42 -70 -14 -46 0
-42 -70 -14 -38 0
-42 -70 -46 -38 0
-42 -14 -46 -38 0
-43 -71 -15 -47 0
-43 -71 -15 -39 0
-43 -71 -47 -39 0
-43 -15 -47 -39 0
-44 -72 -16 -48 0
-44 -72 -16 -40 0
-44 -72 -48 -40 0
-44 -16 -48 -40 0
-45 -46 0
-45 -47 0
-45 -48 0
-46 -47 0
-46 -48 0
-47 -48 0
-45 73 17 49 0
-45 73 17 41 0
-45 73 49 41 0
-45 17 49 41 0
-46 74 18 50 0
-46 74 18 42 0
-46 74 50 42 0
-46 18 50 42 0
-47 75 19 51 0
-47 75 19 43 0
-47 75 51 43 0
-47 19 51 43 0
-48 76 20 52 0
-48 76 20 44 0
-48 76 52 44 0
-48 20 52 44 0
-45 -73 -17 -49 0
-45 -73 -17 -41 0
-45 -73 -49 -41 0
-45 -17 -49 -41 0
-46 -74 -18 -50 0
-46 -74 -18 -42 0
-46 -74 -50 -42 0
-46 -18 -50 -42 0
-47 -75 -19 -51 0
-47 -75 -19 -43 0
-47 -75 -51 -43 0
-47 -19 -51 -43 0
-48 -76 -20 -52 0
-48 -76 -20 -44 0
-48 -76 -52 -44 0
-48 -20 -52 -44 0
51 0
-49 0
-50 0
-52 0
79 23 55 47 0
-79 -23 0
-79 -55 0
-79 -47 0
-23 -55 0
-23 -47 0
-55 -47 0
-53 -54 0
-53 -55 0
-53 -56 0
-54 -55 0
-54 -56 0
-55 -56 0
-53 81 25 0
-53 81 49 0
-53 25 49 0
-54 82 26 0
-54 82 50 0
-54 26 50 0
-55 83 27 0
-55 83 51 0
-55 27 51 0
-56 84 28 0
-56 84 52 0
-56 28 52 0
-53 -81 -25 -49 0
-54 -82 -26 -50 0
-55 -83 -27 -51 0
-56 -84 -28 -52 0
-57 -58 0
-57 -59 0
-57 -60 0
-58 -59 0
-58 -60 0
-59 -60 0
-57 85 29 0
-57 85 61 0
-57 29 61 0
-58 86 30 0
-58 86 62 0
-58 30 62 0
-59 87 31 0
-59 87 63 0
-59 31 63 0
-60 88 32 0
-60 88 64 0
-60 32 64 0
-57 -85 -29 -61 0
-58 -86 -30 -62 0
-59 -87 -31 -63 0
-60 -88 -32 -64 0
-61 -62 0
-61 -63 0
-61 -64 0
-62 -63 0
-62 -64 0
-63 -64 0
-61 89 33 65 0
-61 89 33 57 0
-61 89 65 57 0
-61 33 65 57 0
-62 90 34 66 0
-62 90 34 58 0
-62 90 66 58 0
-62 34 66 58 0
-63 91 35 67 0
-63 91 35 59 0
-63 91 67 59 0
-63 35 67 59 0
-64 92 36 68 0
-64 92 36 60 0
-64 92 68 60 0
-64 36 68 60 0
-61 -89 -33 -65 0
-61 -89 -33 -57 0
-61 -89 -65 -57 0
-61 -33 -65 -57 0
-62 -90 -34 -66 0
-62 -90 -34 -58 0
-62 -90 -66 -58 0
-62 -34 -66 -58 0
-63 -91 -35 -67 0
-63 -91 -35 -59 0
-63 -91 -67 -59 0
-63 -35 -67 -59 0
-64 -92 -36 -68 0
-64 -92 -36 -60 0
-64 -92 -68 -60 0
-64 -36 -68 -60 0
-65 -66 0
-65 -67 0
-65 -68 0
-66 -67 0
-66 -68 0
-67 -68 0
-65 93 37 69 0
-65 93 37 61 0
-65 93 69 61 0
-65 37 69 61 0
-66 94 38 70 0
-66 94 38 62 0
-66 94 70 62 0
-66 38 70 62 0
-67 95 39 71 0
-67 95 39 63 0
-67 95 71 63 0
-67 39 71 63 0
-68 96 40 72 0
-68 96 40 64 0
-68 96 72 64 0
-68 40 72 64 0
-65 -93 -37 -69 0
-65 -93 -37 -61 0
-65 -93 -69 -61 0
-65 -37 -69 -61 0
-66 -94 -38 -70 0
-66 -94 -38 -62 0
-66 -94 -70 -62 0
-66 -38 -70 -62 0
-67 -95 -39 -71 0
-67 -95 -39 -63 0
-67 -95 -71 -63 0
-67 -39 -71 -63 0
-68 -96 -40 -72 0
-68 -96 -40 -64 0
-68 -96 -72 -64 0
-68 -40 -72 -64 0
70 0
-69 0
-71 0
-72 0
98 42 74 66 0
-98 -42 0
-98 -74 0
-98 -66 0
-42 -74 0
-42 -66 0
-74 -66 0
-73 -74 0
-73 -75 0
-73 -76 0
-74 -75 0
-74 -76 0
-75 -76 0
-73 101 45 77 0
-73 101 45 69 0
-73 101 77 69 0
-73 45 77 69 0
-74 102 46 78 0
-74 102 46 70 0
-74 102 78 70 0
-74 46 78 70 0
-75 103 47 79 0
-75 103 47 71 0
-75 103 79 71 0
-75 47 79 71 0
-76 104 48 80 0
-76 104 48 72 0
-76 104 80 72 0
-76 48 80 72 0
-73 -101 -45 -77 0
-73 -101 -45 -69 0
-73 -101 -77 -69 0
-73 -45 -77 -69 0
-74 -102 -46 -78 0
-74 -102 -46 -70 0
-74 -102 -78 -70 0
-74 -46 -78 -70 0
-75 -103 -47 -79 0
-75 -103 -47 -71 0
-75 -103 -79 -71 0
-75 -47 -79 -71 0
-76 -104 -48 -80 0
-76 -104 -48 -72 0
-76 -104 -80 -72 0
-76 -48 -80 -72 0
-77 -78 0
-77 -79 0
-77 -80 0
-78 -79 0
-78 -80 0
-79 -80 0
-77 105 49 81 0
-77 105 49 73 0
-77 105 81 73 0
-77 49 81 73 0
-78 106 50 82 0
-78 106 50 74 0
-78 106 82 74 0
-78 50 82 74 0
-79 107 51 83 0
-79 107 51 75 0
-79 107 83 75 0
-79 51 83 75 0
-80 108 52 84 0
-80 108 52 76 0
-80 108 84 76 0
-80 52 84 76 0
-77 -105 -49 -81 0
-77 -105 -49 -73 0
-77 -105 -81 -73 0
-77 -49 -81 -73 0
-78 -106 -50 -82 0
-78 -106 -50 -74 0
-78 -106 -82 -74 0
-78 -50 -82 -74 0
-79 -107 -51 -83 0
-79 -107 -51 -75 0
-79 -107 -83 -75 0
-79 -51 -83 -75 0
-80 -108 -52 -84 0
-80 -108 -52 -76 0
-80 -108 -84 -76 0
-80 -52 -84 -76 0
-81 -82 0
-81 -83 0
-81 -84 0
-82 -83 0
-82 -84 0
-83 -84 0
-81 109 53 0
-81 109 77 0
-81 53 77 0
-82 110 54 0
-82 110 78 0
-82 54 78 0
-83 111 55 0
-83 111 79 0
-83 55 79 0
-84 112 56 0
-84 112 80 0
-84 56 80 0
-81 -109 -53 -77 0
-82 -110 -54 -78 0
-83 -111 -55 -79 0
-84 -112 -56 -80 0
-85 -86 0
-85 -87 0
-85 -88 0
-86 -87 0
-86 -88 0
-87 -88 0
-85 113 57 0
-85 113 89 0
-85 57 89 0
-86 114 58 0
-86 114 90 0
-86 58 90 0
-87 115 59 0
-87 115 91 0
-87 59 91 0
-88 116 60 0
-88 116 92 0
-88 60 92 0
-85 -113 -57 -89 0
-86 -114 -58 -90 0
-87 -115 -59 -91 0
-88 -116 -60 -92 0
-89 -90 0
-89 -91 0
-89 -92 0
-90 -91 0
-90 -92 0
-91 -92 0
-89 117 61 93 0
-89 117 61 85 0
-89 117 93 85 0
-89 61 93 85 0
-90 118 62 94 0
-90 118 62 86 0
-90 118 94 86 0
-90 62 94 86 0
-91 119 63 95 0
-91 119 63 87 0
-91 119 95 87 0
-91 63 95 87 0
-92 120 64 96 0
-92 120 64 88 0
-92 120 96 88 0
-92 64 96 88 0
-89 -117 -61 -93 0
-89 -117 -61 -85 0
-89 -117 -93 -85 0
-89 -61 -93 -85 0
-90 -118 -62 -94 0
-90 -118 -62 -86 0
-90 -118 -94 -86 0
-90 -62 -94 -86 0
-91 -119 -63 -95 0
-91 -119 -63 -87 0
-91 -119 -95 -87 0
-91 -63 -95 -87 0
-92 -120 -64 -96 0
-92 -120 -64 -88 0
-92 -120 -96 -88 0
-92 -64 -96 -88 0
-93 -94 0
-93 -95 0
-93 -96 0
-94 -95 0
-94 -96 0
-95 -96 0
-93 121 65 97 0
-93 121 65 89 0
-93 121 97 89 0
-93 65 97 89 0
-94 122 66 98 0
-94 122 66 90 0
-94 122 98 90 0
-94 66 98 90 0
-95 123 67 99 0
-95 123 67 91 0
-95 123 99 91 0
-95 67 99 91 0
-96 124 68 100 0
-96 124 68 92 0
-96 124 100 92 0
-96 68 100 92 0
-93 -121 -65 -97 0
-93 -121 -65 -89 0
-93 -121 -97 -89 0
-93 -65 -97 -89 0
-94 -122 -66 -98 0
-94 -122 -66 -90 0
-94 -122 -98 -90 0
-94 -66 -98 -90 0
-95 -123 -67 -99 0
-95 -123 -67 -91 0
-95 -123 -99 -91 0
-95 -67 -99 -91 0
-96 -124 -68 -100 0
-96 -124 -68 -92 0
-96 -124 -100 -92 0
-96 -68 -100 -92 0
-97 -98 0
-97 -99 0
-97 -100 0
-98 -99 0
-98 -100 0
-99 -100 0
-97 125 69 101 0
-97 125 69 93 0
-97 125 101 93 0
-97 69 101 93 0
-98 126 70 102 0
-98 126 70 94 0
-98 126 102 94 0
-98 70 102 94 0
-99 127 71 103 0
-99 127 71 95 0
-99 127 103 95 0
-99 71 103 95 0
-100 128 72 104 0
-100 128 72 96 0
-100 128 104 96 0
-100 72 104 96 0
-97 -125 -69 -101 0
-97 -125 -69 -93 0
-97 -125 -101 -93 0
-97 -69 -101 -93 0
-98 -126 -70 -102 0
-98 -126 -70 -94 0
-98 -126 -102 -94 0
-98 -70 -102 -94 0
-99 -127 -71 -103 0
-99 -127 -71 -95 0
-99 -127 -103 -95 0
-99 -71 -103 -95 0
-100 -128 -72 -104 0
-100 -128 -72 -96 0
-100 -128 -104 -96 0
-100 -72 -104 -96 0
-101 -102 0
-101 -103 0
-101 -104 0
-102 -103 0
-102 -104 0
-103 -104 0
-101 129 73 105 0
-101 129 73 97 0
-101 129 105 97 0
-101 73 105 97 0
-102 130 74 106 0
-102 130 74 98 0
-102 130 106 98 0
-102 74 106 98 0
-103 131 75 107 0
-103 131 75 99 0
-103 131 107 99 0
-103 75 107 99 0
-104 132 76 108 0
-104 132 76 100 0
-104 132 108 100 0
-104 76 108 100 0
-101 -129 -73 -105 0
-101 -129 -73 -97 0
-101 -129 -105 -97 0
-101 -73 -105 -97 0
-102 -130 -74 -106 0
-102 -130 -74 -98 0
-102 -130 -106 -98 0
-102 -74 -106 -98 0
-103 -131 -75 -107 0
-103 -131 -75 -99 0
-103 -131 -107 -99 0
-103 -75 -107 -99 0
-104 -132 -76 -108 0
-104 -132 -76 -100 0
-104 -132 -108 -100 0
-104 -76 -108 -100 0
-105 -106 0
-105 -107 0
-105 -108 0
-106 -107 0
-106 -108 0
-107 -108 0
-105 133 77 109 0
-105 133 77 101 0
-105 133 109 101 0
-105 77 109 101 0
-106 134 78 110 0
-106 134 78 102 0
-106 134 110 102 0
-106 78 110 102 0
-107 135 79 111 0
-107 135 79 103 0
-107 135 111 103 0
-107 79 111 103 0
-108 136 80 112 0
-108 136 80 104 0
-108 136 112 104 0
-108 80 112 104 0
-105 -133 -77 -109 0
-105 -133 -77 -101 0
-105 -133 -109 -101 0
-105 -77 -109 -101 0
-106 -134 -78 -110 0
-106 -134 -78 -102 0
-106 -134 -110 -102 0
-106 -78 -110 -102 0
-107 -135 -79 -111 0
-107 -135 -79 -103 0
-107 -135 -111 -103 0
-107 -79 -111 -103 0
-108 -136 -80 -112 0
-108 -136 -80 -104 0
-108 -136 -112 -104 0
-108 -80 -112 -104 0
-109 -110 0
-109 -111 0
-109 -112 0
-110 -111 0
-110 -112 0
-111 -112 0
-109 137 81 0
-109 137 105 0
-109 81 105 0
-110 138 82 0
-110 138 106 0
-110 82 106 0
-111 139 83 0
-111 139 107 0
-111 83 107 0
-112 140 84 0
-112 140 108 0
-112 84 108 0
-109 -137 -81 -105 0
-110 -138 -82 -106 0
-111 -139 -83 -107 0
-112 -140 -84 -108 0
-113 -114 0
-113 -115 0
-113 -116 0
-114 -115 0
-114 -116 0
-115 -116 0
-113 141 85 0
-113 141 117 0
-113 85 117 0
-114 142 86 0
-114 142 118 0
-114 86 118 0
-115 143 87 0
-115 143 119 0
-115 87 119 0
-116 144 88 0
-116 144 120 0
-116 88 120 0
-113 -141 -85 -117 0
-114 -142 -86 -118 0
-115 -143 -87 -119 0
-116 -144 -88 -120 0
-117 -118 0
-117 -119 0
-117 -120 0
-118 -119 0
-118 -120 0
-119 -120 0
-117 145 89 121 0
-117 145 89 113 0
-117 145 121 113 0
-117 89 121 113 0
-118 146 90 122 0
-118 146 90 114 0
-118 146 122 114 0
-118 90 122 114 0
-119 147 91 123 0
-119 147 91 115 0
-119 147 123 115 0
-119 91 123 115 0
-120 148 92 124 0
-120 148 92 116 0
-120 148 124 116 0
-120 92 124 116 0
-117 -145 -89 -121 0
-117 -145 -89 -113 0
-117 -145 -121 -113 0
-117 -89 -121 -113 0
-118 -146 -90 -122 0
-118 -146 -90 -114 0
-118 -146 -122 -114 0
-118 -90 -122 -114 0
-119 -147 -91 -123 0
-119 -147 -91 -115 0
-119 -147 -123 -115 0
-119 -91 -123 -115 0
-120 -148 -92 -124 0
-120 -148 -92 -116 0
-120 -148 -124 -116 0
-120 -92 -124 -116 0
-121 -122 0
-121 -123 0
-121 -124 0
-122 -123 0
-122 -124 0
-123 -124 0
-121 149 93 125 0
-121 149 93 117 0
-121 149 125 117 0
-121 93 125 117 0
-122 150 94 126 0
-122 150 94 118 0
-122 150 126 118 0
-122 94 126 118 0
-123 151 95 127 0
-123 151 95 119 0
-123 151 127 119 0
-123 95 127 119 0
-124 152 96 128 0
-124 152 96 120 0
-124 152 128 120 0
-124 96 128 120 0
-121 -149 -93 -125 0
-121 -149 -93 -117 0
-121 -149 -125 -117 0
-121 -93 -125 -117 0
-122 -150 -94 -126 0
-122 -150 -94 -118 0
-122 -150 -126 -118 0
-122 -94 -126 -118 0
-123 -151 -95 -127 0
-123 -151 -95 -119 0
-123 -151 -127 -119 0
-123 -95 -127 -119 0
-124 -152 -96 -128 0
-124 -152 -96 -120 0
-124 -152 -128 -120 0
-124 -96 -128 -120 0
-125 -126 0
-125 -127 0
-125 -128 0
-126 -127 0
-126 -128 0
-127 -128 0
-125 153 97 129 0
-125 153 97 121 0
-125 153 129 121 0
-125 97 129 121 0
-126 154 98 130 0
-126 154 98 122 0
-126 154 130 122 0
-126 98 130 122 0
-127 155 99 131 0
-127 155 99 123 0
-127 155 131 123 0
-127 99 131 123 0
-128 156 100 132 0
-128 156 100 124 0
-128 156 132 124 0
-128 100 132 124 0
-125 -153 -97 -129 0
-125 -153 -97 -121 0
-125 -153 -129 -121 0
-125 -97 -129 -121 0
-126 -154 -98 -130 0
-126 -154 -98 -122 0
-126 -154 -130 -122 0
-126 -98 -130 -122 0
-127 -155 -99 -131 0
-127 -155 -99 -123 0
-127 -155 -131 -123 0
-127 -99 -131 -123 0
-128 -156 -100 -132 0
-128 -156 -100 -124 0
-128 -156 -132 -124 0
-128 -100 -132 -124 0
-129 -130 0
-129 -131 0
-129 -132 0
-130 -131 0
-130 -132 0
-131 -132 0
-129 157 101 133 0
-129 157 101 125 0
-129 157 133 125 0
-129 101 133 125 0
-130 158 102 134 0
-130 158 102 126 0
-130 158 134 126 0
-130 102 134 126 0
-131 159 103 135 0
-131 159 103 127 0
-131 159 135 127 0
-131 103 135 127 0
-132 160 104 136 0
-132 160 104 128 0
-132 160 136 128 0
-132 104 136 128 0
-129 -157 -101 -133 0
-129 -157 -101 -125 0
-129 -157 -133 -125 0
-129 -101 -133 -125 0
-130 -158 -102 -134 0
-130 -158 -102 -126 0
-130 -158 -134 -126 0
-130 -102 -134 -126 0
-131 -159 -103 -135 0
-131 -159 -103 -127 0
-131 -159 -135 -127 0
-131 -103 -135 -127 0
-132 -160 -104 -136 0
-132 -160 -104 -128 0
-132 -160 -136 -128 0
-132 -104 -136 -128 0
-133 -134 0
-133 -135 0
-133 -136 0
-134 -135 0
-134 -136 0
-135 -136 0
-133 161 105 137 0
-133 161 105 129 0
-133 161 137 129 0
-133 105 137 129 0
-134 162 106 138 0
-134 162 106 130 0
-134 162 138 130 0
-134 106 138 130 0
-135 163 107 139 0
-135 163 107 131 0
-135 163 139 131 0
-135 107 139 131 0
-136 164 108 140 0
-136 164 108 132 0
-136 164 140 132 0
-136 108 140 132 0
-133 -161 -105 -137 0
-133 -161 -105 -129 0
-133 -161 -137 -129 0
-133 -105 -137 -129 0
-134 -162 -106 -138 0
-134 -162 -106 -130 0
-134 -162 -138 -130 0
-134 -106 -138 -130 0
-135 -163 -107 -139 0
-135 -163 -107 -131 0
-135 -163 -139 -131 0
-135 -107 -139 -131 0
-136 -164 -108 -140 0
-136 -164 -108 -132 0
-136 -164 -140 -132 0
-136 -108 -140 -132 0
-137 -138 0
-137 -139 0
-137 -140 0
-138 -139 0
-138 -140 0
-139 -140 0
-137 165 109 0
-137 165 133 0
-137 109 133 0
-138 166 110 0
-138 166 134 0
-138 110 134 0
-139 167 111 0
-139 167 135 0
-139 111 135 0
-140 168 112 0
-140 168 136 0
-140 112 136 0
-137 -165 -109 -133 0
-138 -166 -110 -134 0
-139 -167 -111 -135 0
-140 -168 -112 -136 0
142 0
-141 0
-143 0
-144 0
170 114 146 0
-170 -114 0
-170 -146 0
-114 -146 0
-145 -146 0
-145 -147 0
-145 -148 0
-146 -147 0
-146 -148 0
-147 -148 0
-145 173 117 149 0
-145 173 117 141 0
-145 173 149 141 0
-145 117 149 141 0
-146 174 118 150 0
-146 174 118 142 0
-146 174 150 142 0
-146 118 150 142 0
-147 175 119 151 0
-147 175 119 143 0
-147 175 151 143 0
-147 119 151 143 0
-148 176 120 152 0
-148 176 120 144 0
-148 176 152 144 0
-148 120 152 144 0
-145 -173 -117 -149 0
-145 -173 -117 -141 0
-145 -173 -149 -141 0
-145 -117 -149 -141 0
-146 -174 -118 -150 0
-146 -174 -118 -142 0
-146 -174 -150 -142 0
-146 -118 -150 -142 0
-147 -175 -119 -151 0
-147 -175 -119 -143 0
-147 -175 -151 -143 0
-147 -119 -151 -143 0
-148 -176 -120 -152 0
-148 -176 -120 -144 0
-148 -176 -152 -144 0
-148 -120 -152 -144 0
-149 -150 0
-149 -151 0
-149 -152 0
-150 -151 0
-150 -152 0
-151 -152 0
-149 177 121 153 0
-149 177 121 145 0
-149 177 153 145 0
-149 121 153 145 0
-150 178 122 154 0
-150 178 122 146 0
-150 178 154 146 0
-150 122 154 146 0
-151 179 123 155 0
-151 179 123 147 0
-151 179 155 147 0
-151 123 155 147 0
-152 180 124 156 0
-152 180 124 148 0
-152 180 156 148 0
-152 124 156 148 0
-149 -177 -121 -153 0
-149 -177 -121 -145 0
-149 -177 -153 -145 0
-149 -121 -153 -145 0
-150 -178 -122 -154 0
-150 -178 -122 -146 0
-150 -178 -154 -146 0
-150 -122 -154 -146 0
-151 -179 -123 -155 0
-151 -179 -123 -147 0
-151 -179 -155 -147 0
-151 -123 -155 -147 0
-152 -180 -124 -156 0
-152 -180 -124 -148 0
-152 -180 -156 -148 0
-152 -124 -156 -148 0
156 0
-153 0
-154 0
-155 0
184 128 160 152 0
-184 -128 0
-184 -160 0
-184 -152 0
-128 -160 0
-128 -152 0
-160 -152 0
-157 -158 0
-157 -159 0
-157 -160 0
-158 -159 0
-158 -160 0
-159 -160 0
-157 185 129 161 0
-157 185 129 153 0
-157 185 161 153 0
-157 129 161 153 0
-158 186 130 162 0
-158 186 130 154 0
-158 186 162 154 0
-158 130 162 154 0
-159 187 131 163 0
-159 187 131 155 0
-159 187 163 155 0
-159 131 163 155 0
-160 188 132 164 0
-160 188 132 156 0
-160 188 164 156 0
-160 132 164 156 0
-157 -185 -129 -161 0
-157 -185 -129 -153 0
-157 -185 -161 -153 0
-157 -129 -161 -153 0
-158 -186 -130 -162 0
-158 -186 -130 -154 0
-158 -186 -162 -154 0
-158 -130 -162 -154 0
-159 -187 -131 -163 0
-159 -187 -131 -155 0
-159 -187 -163 -155 0
-159 -131 -163 -155 0
-160 -188 -132 -164 0
-160 -188 -132 -156 0
-160 -188 -164 -156 0
-160 -132 -164 -156 0
-161 -162 0
-161 -163 0
-161 -164 0
-162 -163 0
-162 -164 0
-163 -164 0
-161 189 133 165 0
-161 189 133 157 0
-161 189 165 157 0
-161 133 165 157 0
-162 190 134 166 0
-162 190 134 158 0
-162 190 166 158 0
-162 134 166 158 0
-163 191 135 167 0
-163 191 135 159 0
-163 191 167 159 0
-163 135 167 159 0
-164 192 136 168 0
-164 192 136 160 0
-164 192 168 160 0
-164 136 168 160 0
-161 -189 -133 -165 0
-161 -189 -133 -157 0
-161 -189 -165 -157 0
-161 -133 -165 -157 0
-162 -190 -134 -166 0
-162 -190 -134 -158 0
-162 -190 -166 -158 0
-162 -134 -166 -158 0
-163 -191 -135 -167 0
-163 -191 -135 -159 0
-163 -191 -167 -159 0
-163 -135 -167 -159 0
-164 -192 -136 -168 0
-164 -192 -136 -160 0
-164 -192 -168 -160 0
-164 -136 -168 -160 0
-165 -166 0
-165 -167 0
-165 -168 0
-166 -167 0
-166 -168 0
-167 -168 0
-165 193 137 0
-165 193 161 0
-165 137 161 0
-166 194 138 0
-166 194 162 0
-166 138 162 0
-167 195 139 0
-167 195 163 0
-167 139 163 0
-168 196 140 0
-168 196 164 0
-168 140 164 0
-165 -193 -137 -161 0
-166 -194 -138 -162 0
-167 -195 -139 -163 0
-168 -196 -140 -164 0
169 0
-170 0
-171 0
-172 0
141 173 0
-141 -173 0
-173 -174 0
-173 -175 0
-173 -176 0
-174 -175 0
-174 -176 0
-175 -176 0
-173 169 145 0
-173 145 177 0
-173 169 177 0
-174 170 146 0
-174 146 178 0
-174 170 178 0
-175 171 147 0
-175 147 179 0
-175 171 179 0
-176 172 148 0
-176 148 180 0
-176 172 180 0
-173 -145 -169 -177 0
-174 -146 -170 -178 0
-175 -147 -171 -179 0
-176 -148 -172 -180 0
-177 -178 0
-177 -179 0
-177 -180 0
-178 -179 0
-178 -180 0
-179 -180 0
-177 173 149 0
-177 149 181 0
-177 173 181 0
-178 174 150 0
-178 150 182 0
-178 174 182 0
-179 175 151 0
-179 151 183 0
-179 175 183 0
-180 176 152 0
-180 152 184 0
-180 176 184 0
-177 -149 -173 -181 0
-178 -150 -174 -182 0
-179 -151 -175 -183 0
-180 -152 -176 -184 0
-181 -182 0
-181 -183 0
-181 -184 0
-182 -183 0
-182 -184 0
-183 -184 0
-181 177 153 0
-181 153 185 0
-181 177 185 0
-182 178 154 0
-182 154 186 0
-182 178 186 0
-183 179 155 0
-183 155 187 0
-183 179 187 0
-184 180 156 0
-184 156 188 0
-184 180 188 0
-181 -153 -177 -185 0
-182 -154 -178 -186 0
-183 -155 -179 -187 0
-184 -156 -180 -188 0
-185 -186 0
-185 -187 0
-185 -188 0
-186 -187 0
-186 -188 0
-187 -188 0
-185 181 157 0
-185 157 189 0
-185 181 189 0
-186 182 158 0
-186 158 190 0
-186 182 190 0
-187 183 159 0
-187 159 191 0
-187 183 191 0
-188 184 160 0
-188 160 192 0
-188 184 192 0
-185 -157 -181 -189 0
-186 -158 -182 -190 0
-187 -159 -183 -191 0
-188 -160 -184 -192 0
-189 -190 0
-189 -191 0
-189 -192 0
-190 -191 0
-190 -192 0
-191 -192 0
-189 185 161 0
-189 161 193 0
-189 185 193 0
-190 186 162 0
-190 162 194 0
-190 186 194 0
-191 187 163 0
-191 163 195 0
-191 187 195 0
-192 188 164 0
-192 164 196 0
-192 188 196 0
-189 -161 -185 -193 0
-190 -162 -186 -194 0
-191 -163 -187 -195 0
-192 -164 -188 -196 0
195 0
-193 0
-194 0
-196 0
167 191 0
-167 -191 0
29 33 37 41 45 53 0
57 61 65 73 77 81 0
85 89 93 97 101 105 109 0
113 117 121 125 129 133 137 0
145 149 157 161 165 0
86 90 94 98 102 106 110 0
114 118 122 126 130 134 138 0
34 62 90 118 146 174 0
10 38 66 94 122 150 178 0
59 63 67 75 79 83 0
87 91 95 99 103 107 111 0
115 119 123 127 131 135 139 0
147 151 159 163 167 0
32 36 40 44 48 56 0
60 64 68 76 80 84 0
88 92 96 100 104 108 112 0
116 120 124 128 132 136 140 0
12 40 68 96 124 152 180 0